NAME : kroA100.27136.tour
COMMENT : Cost = 0_27136
COMMENT : Found by LKH [Keld Helsgaun] Thu Nov 16 16:24:23 2017
TYPE : TOUR
DIMENSION : 109
TOUR_SECTION
1
63
109
42
89
31
80
56
97
75
19
4
65
26
66
70
22
94
16
88
53
79
18
24
38
99
36
84
10
72
21
74
59
17
15
11
32
45
91
98
23
77
60
62
35
86
27
12
20
57
9
7
55
83
34
29
46
43
3
14
71
41
100
48
30
39
96
78
52
5
37
33
76
13
95
82
85
68
73
50
44
2
54
40
64
69
81
25
87
51
61
58
67
108
90
107
49
106
47
105
8
104
28
103
93
102
6
101
92
-1
EOF
